55209
40, 51, 13, 43, 3, 6, 28, 55, 49, 26, 54, 53, 34, 47, 4, 30, 18, 12, 9, 14, 2, 45, 11, 31, 25, 27, 1, 33, 42, 52, 16, 15, 36, 39, 46, 10, 22, 29, 23, 21, 17, 48, 19, 32, 41, 8, 44, 38, 50, 20, 24, 35, 5, 37, 7
